data/solutions/recovery/degenerate/intermediate/binding/degenerate_intermediate_instance23/4.sol
Elapsed time: 0.04
Upper bound: 243862024.0
Planning weighted value: 9.57607828101e+11
C[0]=243862024.0
C[1]=239618073.0
C[2]=234656965.0
C[3]=226452230.0
C[4]=226071775.0
C[5]=222239255.0
C[6]=221870355.0
C[7]=221710160.0
C[8]=217214300.0
C[9]=215400140.0
C[10]=213310623.0
C[11]=0.0
y[0]=8
y[1]=5
y[2]=8
y[3]=9
y[4]=3
y[5]=6
y[6]=0
y[7]=8
y[8]=1
y[9]=7
y[10]=7
y[11]=0
y[12]=6
y[13]=4
y[14]=10
y[15]=10
y[16]=2
y[17]=9
y[18]=4
y[19]=4
y[20]=10
y[21]=9
y[22]=5
y[23]=10
y[24]=7
y[25]=8
y[26]=7
y[27]=1
y[28]=8
y[29]=1
y[30]=2
y[31]=3
y[32]=9
y[33]=9
y[34]=2
y[35]=2
y[36]=4
y[37]=3
y[38]=3
y[39]=6
y[40]=0
y[41]=10
y[42]=9
y[43]=5
y[44]=6
y[45]=0
y[46]=6
y[47]=5
y[48]=6
y[49]=9
y[50]=6
y[51]=4
y[52]=8
y[53]=0
y[54]=0
y[55]=6
y[56]=2
y[57]=2
y[58]=3
y[59]=5
y[60]=4
y[61]=10
y[62]=7
y[63]=1
y[64]=3
y[65]=6
y[66]=1
y[67]=5
y[68]=7
y[69]=3
y[70]=9
y[71]=2
y[72]=5
y[73]=10
y[74]=5
y[75]=1
y[76]=1
y[77]=1
