data/solutions/recovery/degenerate/intermediate/binding/degenerate_intermediate_instance23/4.log

Log started (V12.6.3.0) Sun Apr 22 12:29:21 2018

New value for default parallel thread count: 1

Problem '/tmp/tmpM8fmm8.pyomo.lp' read.
Read time = 0.01 sec. (0.84 ticks)

Problem name         : /tmp/tmpM8fmm8.pyomo.lp
Objective sense      : Minimize
Variables            :     950  [Nneg: 1,  Binary: 936,  General Integer: 13]
Objective nonzeros   :       1
Linear constraints   :     182  [Less: 90,  Equal: 92]
  Nonzeros           :   60259
  RHS nonzeros       :      79

Variables            : Min LB: 0.000000         Max UB: 1.000000       
Objective nonzeros   : Min   : 1.000000         Max   : 1.000000       
Linear constraints   :
  Nonzeros           : Min   : 1.000000         Max   : 6.145599e+07   
  RHS nonzeros       : Min   : 1.000000         Max   : 1.000000       
Tried aggregator 1 time.
MIP Presolve eliminated 151 rows and 839 columns.
Reduced MIP has 31 rows, 111 columns, and 231 nonzeros.
Reduced MIP has 99 binaries, 12 generals, 0 SOSs, and 0 indicators.
Presolve time = 0.00 sec. (3.62 ticks)
Found incumbent of value 5.3487172e+08 after 0.00 sec. (5.11 ticks)
Probing time = 0.00 sec. (0.32 ticks)
Tried aggregator 1 time.
Reduced MIP has 31 rows, 111 columns, and 231 nonzeros.
Reduced MIP has 99 binaries, 12 generals, 0 SOSs, and 0 indicators.
Presolve time = 0.00 sec. (0.18 ticks)
Probing time = 0.00 sec. (0.32 ticks)
Clique table members: 9.
MIP emphasis: balance optimality and feasibility.
MIP search method: dynamic search.
Parallel mode: none, using 1 thread.
Root relaxation solution time = 0.00 sec. (0.23 ticks)

        Nodes                                         Cuts/
   Node  Left     Objective  IInf  Best Integer    Best Bound    ItCnt     Gap

*     0+    0                       5.34872e+08   2.43862e+08            54.41%
      0     0   2.43862e+08    14   5.34872e+08   2.43862e+08       52   54.41%
      0     0   2.43862e+08    15   5.34872e+08      Fract: 8       68   54.41%
      0     0   2.43862e+08    10   5.34872e+08      Fract: 1       73   54.41%
*     0+    0                       2.52326e+08   2.43862e+08             3.35%
*     0+    0                       2.43862e+08   2.43862e+08             0.00%
      0     0        cutoff         2.43862e+08   2.43862e+08       73    0.00%
Elapsed time = 0.01 sec. (9.91 ticks, tree = 0.01 MB, solutions = 3)

Gomory fractional cuts applied:  1

Root node processing (before b&c):
  Real time             =    0.01 sec. (9.95 ticks)
Sequential b&c:
  Real time             =    0.00 sec. (0.00 ticks)
                          ------------
Total (root+branch&cut) =    0.01 sec. (9.95 ticks)

Solution pool: 3 solutions saved.

MIP - Integer optimal solution:  Objective =  2.4386202400e+08
Solution time =    0.01 sec.  Iterations = 73  Nodes = 0
Deterministic time = 9.96 ticks  (870.43 ticks/sec)


Incumbent solution written to file '/tmp/tmp5gMHJC.cplex.sol'.
